09-routing/solutions/XSH-n20-k4-09.opt.sol
Route #1: 8 11 17 19 7 4 9
Route #2: 10 1 13 2 3
Route #3: 18 5 12 14
Route #4: 6 15 16 20
Cost 707
